(declare-const __VERIFIER_assert__cond___7 Int)
(declare-const __VERIFIER_assert__cond___3 Int)
(declare-const __VERIFIER_assert__cond___18 Int)
(declare-const |main____CPAchecker_TMP_4':364:389:1259:1290| Int)
(declare-const |phi_main____CPAchecker_TMP_0___0:397:524:1270| Int)
(declare-const havoc Int)
(declare-const |phi___VERIFIER_assert__cond___17:394:527:1273| Int)
(declare-const |phi___VERIFIER_assert__cond___0:400:521:1267| Int)
(declare-const |main____CPAchecker_TMP_6':369:386:1256:1287| Int)
(declare-const __VERIFIER_assert__cond___15 Int)
(declare-const |phi___tmp_383_0:405:516:1262| Int)
(declare-const |phi___tmp_259_0:404:517:1263| Int)
(declare-const |__VERIFIER_assert__cond___17':150:168:175:228:531:1277| Int)
(declare-const |main__t':147:167:174:227:530:1276| Int)
(declare-const __VERIFIER_assert__cond___8 Int)
(declare-const __VERIFIER_assert__cond___11 Int)
(declare-const |main____CPAchecker_TMP_3':363:390:1260:1291| Int)
(declare-const |phi___VERIFIER_assert__cond___15:396:525:1271| Int)
(declare-const |phi___VERIFIER_assert__cond___12:398:523:1269| Int)
(declare-const |K:381:382:1252:1283| Int)
(declare-const |__VERIFIER_assert__cond___4':366:387:1257:1288| Int)
(declare-const |phi___VERIFIER_assert__cond:401:520:1266| Int)
(declare-const |__VERIFIER_assert__cond___7':367:383:1253:1284| Int)
(declare-const |__tmp_383_0':146:170:177:230:533:1279| Int)
(declare-const |__VERIFIER_assert__cond___8':368:384:1254:1285| Int)
(declare-const __VERIFIER_assert__cond___4 Int)
(declare-const main____CPAchecker_TMP_4 Int)
(declare-const |phi_main__t:403:518:1264| Int)
(declare-const __VERIFIER_assert__cond___0 Int)
(declare-const |phi___VERIFIER_assert__cond___16:395:526:1272| Int)
(declare-const |phi___VERIFIER_assert__cond___18:393:528:1274| Int)
(declare-const __VERIFIER_assert__cond___12 Int)
(declare-const |K:165:166:173:226:529:1275| Int)
(declare-const |phi___VERIFIER_assert__cond___11:399:522:1268| Int)
(declare-const __VERIFIER_assert__cond Int)
(declare-const main____CPAchecker_TMP_3 Int)
(declare-const |__VERIFIER_assert__cond___3':365:388:1258:1289| Int)
(declare-const |phi_main____CPAchecker_TMP_0:402:519:1265| Int)
(declare-const main____CPAchecker_TMP_6 Int)
(declare-const __tmp_383_0 Int)
(declare-const main____CPAchecker_TMP_0___0 Int)
(declare-const |__VERIFIER_assert__cond___18':151:171:178:231:534:1280| Int)
(declare-const __VERIFIER_assert__cond___17 Int)
(declare-const |havoc:9:63:145:225:233:536:1282| Int)
(declare-const |havoc:3:62:1261| Int)
(declare-const |main____CPAchecker_TMP_0___0':149:172:179:232:535:1281| Int)
(declare-const __VERIFIER_assert__cond___16 Int)
(declare-const |main____CPAchecker_TMP_0':148:169:176:229:532:1278| Int)
(declare-const |main__t':147:385:1255:1286| Int)
(assert (and (<= (+ (- havoc) 1) 0) (not (= (+ (- havoc) 1) 0))
               (or (and (not (= |havoc:3:62:1261| 0))
                          (not (= (ite (<= (+ (- havoc) 1) 0) 1 0) 0))
                          (= (+ (- |phi___tmp_383_0:405:516:1262|)
                                  __tmp_383_0) 0)
                          (= (+ (- |phi___tmp_259_0:404:517:1263|)
                                  |havoc:3:62:1261|) 0)
                          (= (- |phi_main__t:403:518:1264|) 0)
                          (= (+ (- |phi_main____CPAchecker_TMP_0:402:519:1265|)
                                  |havoc:3:62:1261|) 0)
                          (= (+ (- |phi___VERIFIER_assert__cond:401:520:1266|)
                                  1) 0)
                          (= (+ (- |phi___VERIFIER_assert__cond___0:400:521:1267|)
                                  (ite (<= (+ (- havoc) 1) 0) 1 0)) 0)
                          (= (+ (- |phi___VERIFIER_assert__cond___11:399:522:1268|)
                                  __VERIFIER_assert__cond___11) 0)
                          (= (+ (- |phi___VERIFIER_assert__cond___12:398:523:1269|)
                                  __VERIFIER_assert__cond___12) 0)
                          (= (+ (- |phi_main____CPAchecker_TMP_0___0:397:524:1270|)
                                  main____CPAchecker_TMP_0___0) 0)
                          (= (+ (- |phi___VERIFIER_assert__cond___15:396:525:1271|)
                                  __VERIFIER_assert__cond___15) 0)
                          (= (+ (- |phi___VERIFIER_assert__cond___16:395:526:1272|)
                                  __VERIFIER_assert__cond___16) 0)
                          (= (+ (- |phi___VERIFIER_assert__cond___17:394:527:1273|)
                                  __VERIFIER_assert__cond___17) 0)
                          (= (+ (- |phi___VERIFIER_assert__cond___18:393:528:1274|)
                                  __VERIFIER_assert__cond___18) 0))
                     (and (= |havoc:3:62:1261| 0)
                            (not (= (ite (<= (+ (- havoc) 1) 0) 1 0) 0))
                            (or (not (<= (- |K:165:166:173:226:529:1275|) 0))
                                  (= (+ |main__t':147:167:174:227:530:1276|
                                          (- |K:165:166:173:226:529:1275|)) 0))
                            (or (not (and (<= (- |K:165:166:173:226:529:1275|) 0)
                                            (<= |K:165:166:173:226:529:1275| 0)))
                                  (= (+ |__VERIFIER_assert__cond___17':150:168:175:228:531:1277|
                                          (- __VERIFIER_assert__cond___17)) 0))
                            (or (not (<= (+ (- |K:165:166:173:226:529:1275|)
                                              1) 0))
                                  (= (+ |__VERIFIER_assert__cond___17':150:168:175:228:531:1277|
                                          -1) 0))
                            (or (not (and (<= (- |K:165:166:173:226:529:1275|) 0)
                                            (<= |K:165:166:173:226:529:1275| 0)))
                                  (= (+ |main____CPAchecker_TMP_0':148:169:176:229:532:1278|
                                          (- |havoc:3:62:1261|)) 0))
                            (or (not (<= (+ (- |K:165:166:173:226:529:1275|)
                                              1) 0))
                                  (= |main____CPAchecker_TMP_0':148:169:176:229:532:1278| 0))
                            (or (not (and (<= (- |K:165:166:173:226:529:1275|) 0)
                                            (<= |K:165:166:173:226:529:1275| 0)))
                                  (= (+ |__tmp_383_0':146:170:177:230:533:1279|
                                          (- |havoc:3:62:1261|)) 0))
                            (or (not (<= (+ (- |K:165:166:173:226:529:1275|)
                                              1) 0))
                                  (= |__tmp_383_0':146:170:177:230:533:1279| 0))
                            (or (not (and (<= (- |K:165:166:173:226:529:1275|) 0)
                                            (<= |K:165:166:173:226:529:1275| 0)))
                                  (= (+ |__VERIFIER_assert__cond___18':151:171:178:231:534:1280|
                                          (- __VERIFIER_assert__cond___18)) 0))
                            (or (not (<= (+ (- |K:165:166:173:226:529:1275|)
                                              1) 0))
                                  (= (+ |__VERIFIER_assert__cond___18':151:171:178:231:534:1280|
                                          -1) 0))
                            (or (not (and (<= (- |K:165:166:173:226:529:1275|) 0)
                                            (<= |K:165:166:173:226:529:1275| 0)))
                                  (= (+ |main____CPAchecker_TMP_0___0':149:172:179:232:535:1281|
                                          (- main____CPAchecker_TMP_0___0)) 0))
                            (or (not (<= (+ (- |K:165:166:173:226:529:1275|)
                                              1) 0))
                                  (= |main____CPAchecker_TMP_0___0':149:172:179:232:535:1281| 0))
                            (or (and (= |K:165:166:173:226:529:1275| 0)
                                       (= (+ (- |__VERIFIER_assert__cond___18':151:171:178:231:534:1280|)
                                               __VERIFIER_assert__cond___18) 0)
                                       (= (+ (- |__VERIFIER_assert__cond___17':150:168:175:228:531:1277|)
                                               __VERIFIER_assert__cond___17) 0)
                                       (= (+ (- |main____CPAchecker_TMP_0___0':149:172:179:232:535:1281|)
                                               main____CPAchecker_TMP_0___0) 0)
                                       (= (+ (- |main____CPAchecker_TMP_0':148:169:176:229:532:1278|)
                                               |havoc:3:62:1261|) 0)
                                       (= (- |main__t':147:167:174:227:530:1276|) 0)
                                       (= (+ (- |__tmp_383_0':146:170:177:230:533:1279|)
                                               |havoc:3:62:1261|) 0))
                                  (and (<= (+ (- |K:165:166:173:226:529:1275|)
                                                1) 0) (= |havoc:3:62:1261| 0)
                                         (= |havoc:3:62:1261| 0)
                                         (<= (+ (- havoc) 3) 0)
                                         (= (+ |__VERIFIER_assert__cond___18':151:171:178:231:534:1280|
                                                 -1) 0)
                                         (= (+ |__VERIFIER_assert__cond___17':150:168:175:228:531:1277|
                                                 -1) 0)
                                         (= |main____CPAchecker_TMP_0':148:169:176:229:532:1278| 0)
                                         (= |main____CPAchecker_TMP_0___0':149:172:179:232:535:1281| 0)
                                         (= |__tmp_383_0':146:170:177:230:533:1279| 0)
                                         (<= (+ |main__t':147:167:174:227:530:1276|
                                                  (- havoc) 2) 0)
                                         (<= (+ (- |main__t':147:167:174:227:530:1276|)
                                                  1) 0)))
                            (<= (- |K:165:166:173:226:529:1275|) 0)
                            (= |__tmp_383_0':146:170:177:230:533:1279| 0)
                            (= |main____CPAchecker_TMP_0':148:169:176:229:532:1278| 0)
                            (<= (- |main__t':147:167:174:227:530:1276|) 0)
                            (< (+ (- havoc) 1) 0)
                            (= |__tmp_383_0':146:170:177:230:533:1279| 0)
                            (= |main____CPAchecker_TMP_0':148:169:176:229:532:1278| 0)
                            (not (= (+ |main__t':147:167:174:227:530:1276|
                                         (- havoc) 2) 0))
                            (not (= |havoc:9:63:145:225:233:536:1282| 0))
                            (not (= (ite (<= (+ (- |main__t':147:167:174:227:530:1276|)
                                                  -1) 0)
                                         1 0) 0))
                            (not (= (ite (<= (+ |main__t':147:167:174:227:530:1276|
                                                  (- havoc) 2) 0)
                                         1 0) 0))
                            (= (+ |__tmp_383_0':146:170:177:230:533:1279|
                                    (- |phi___tmp_383_0:405:516:1262|)) 0)
                            (= (+ |havoc:9:63:145:225:233:536:1282|
                                    (- |phi___tmp_259_0:404:517:1263|)) 0)
                            (= (+ |main__t':147:167:174:227:530:1276|
                                    (- |phi_main__t:403:518:1264|) 1) 0)
                            (= (+ |__tmp_383_0':146:170:177:230:533:1279|
                                    (- |phi_main____CPAchecker_TMP_0:402:519:1265|)) 0)
                            (= (+ __VERIFIER_assert__cond
                                    (- |phi___VERIFIER_assert__cond:401:520:1266|)) 0)
                            (= (+ __VERIFIER_assert__cond___0
                                    (- |phi___VERIFIER_assert__cond___0:400:521:1267|)) 0)
                            (= (+ (- |phi___VERIFIER_assert__cond___11:399:522:1268|)
                                    1) 0)
                            (= (+ (- |phi___VERIFIER_assert__cond___12:398:523:1269|)
                                    (ite (<= (+ (- havoc) 1) 0) 1 0)) 0)
                            (= (+ |havoc:9:63:145:225:233:536:1282|
                                    (- |phi_main____CPAchecker_TMP_0___0:397:524:1270|)) 0)
                            (= (+ (ite (<= (+ (- |main__t':147:167:174:227:530:1276|)
                                                -1) 0)
                                       1 0)
                                    (- |phi___VERIFIER_assert__cond___15:396:525:1271|)) 0)
                            (= (+ (ite (<= (+ |main__t':147:167:174:227:530:1276|
                                                (- havoc) 2) 0)
                                       1 0)
                                    (- |phi___VERIFIER_assert__cond___16:395:526:1272|)) 0)
                            (= (+ |__VERIFIER_assert__cond___17':150:168:175:228:531:1277|
                                    (- |phi___VERIFIER_assert__cond___17:394:527:1273|)) 0)
                            (= (+ |__VERIFIER_assert__cond___18':151:171:178:231:534:1280|
                                    (- |phi___VERIFIER_assert__cond___18:393:528:1274|)) 0)))
               (or (not (and (<= (- |K:381:382:1252:1283|) 0)
                               (<= |K:381:382:1252:1283| 0)))
                     (= (+ (- __VERIFIER_assert__cond___7)
                             |__VERIFIER_assert__cond___7':367:383:1253:1284|) 0))
               (or (not (<= (+ (- |K:381:382:1252:1283|) 1) 0))
                     (= (+ |__VERIFIER_assert__cond___7':367:383:1253:1284|
                             -1) 0))
               (or (not (and (<= (- |K:381:382:1252:1283|) 0)
                               (<= |K:381:382:1252:1283| 0)))
                     (= (+ (- __VERIFIER_assert__cond___8)
                             |__VERIFIER_assert__cond___8':368:384:1254:1285|) 0))
               (or (not (<= (+ (- |K:381:382:1252:1283|) 1) 0))
                     (= (+ |__VERIFIER_assert__cond___8':368:384:1254:1285|
                             -1) 0))
               (or (not (<= (- |K:381:382:1252:1283|) 0))
                     (<= (+ |main__t':147:385:1255:1286|
                              (* -2 |K:381:382:1252:1283|)
                              (- |phi_main__t:403:518:1264|) -1) 0))
               (or (not (<= (- |K:381:382:1252:1283|) 0))
                     (<= (+ |main__t':147:385:1255:1286|
                              (* 2 |K:381:382:1252:1283|)
                              (- |phi_main__t:403:518:1264|)
                              (- (* |K:381:382:1252:1283| havoc)) -1) 0))
               (or (not (<= (- |K:381:382:1252:1283|) 0))
                     (<= (+ (- |main__t':147:385:1255:1286|)
                              |K:381:382:1252:1283|
                              |phi_main__t:403:518:1264| 1) 0))
               (or (and (= |K:381:382:1252:1283| 0)
                          (= (+ (- |main____CPAchecker_TMP_6':369:386:1256:1287|)
                                  main____CPAchecker_TMP_6) 0)
                          (= (+ __VERIFIER_assert__cond___8
                                  (- |__VERIFIER_assert__cond___8':368:384:1254:1285|)) 0)
                          (= (+ __VERIFIER_assert__cond___7
                                  (- |__VERIFIER_assert__cond___7':367:383:1253:1284|)) 0)
                          (= (+ (- |__VERIFIER_assert__cond___4':366:387:1257:1288|)
                                  __VERIFIER_assert__cond___4) 0)
                          (= (+ (- |__VERIFIER_assert__cond___3':365:388:1258:1289|)
                                  __VERIFIER_assert__cond___3) 0)
                          (= (+ (- |main____CPAchecker_TMP_4':364:389:1259:1290|)
                                  main____CPAchecker_TMP_4) 0)
                          (= (+ (- |main____CPAchecker_TMP_3':363:390:1260:1291|)
                                  main____CPAchecker_TMP_3) 0)
                          (= (+ (- |main__t':147:385:1255:1286|)
                                  |phi_main__t:403:518:1264| 1) 0))
                     (and (<= (+ (- |K:381:382:1252:1283|) 1) 0)
                            (<= (+ |phi_main__t:403:518:1264| (- havoc) 3) 0)
                            (<= (- |phi_main__t:403:518:1264|) 0)
                            (= (+ |__VERIFIER_assert__cond___8':368:384:1254:1285|
                                    -1) 0)
                            (= (+ |__VERIFIER_assert__cond___7':367:383:1253:1284|
                                    -1) 0)
                            (<= (+ |main__t':147:385:1255:1286| (- havoc) 1) 0)
                            (<= (+ (- |main__t':147:385:1255:1286|) 2) 0)))
               (<= (- |K:381:382:1252:1283|) 0)
               (< (- |main__t':147:385:1255:1286|) 0) (< (+ (- havoc) 1) 0)
               (= (+ |main__t':147:385:1255:1286| (- havoc) 1) 0)
               (= (ite (<= (- |main__t':147:385:1255:1286|) 0) 1 0) 0)))
(check-sat)
